NAME : Problem-6-10-C
TYPE : HVRP
DIMENSION : 11
EDGE_WEIGHT_TYPE : EUC_2D

NODE_COORD_SECTION
1 20 20
2 37 52
4 52 64
6 40 30
9 31 62
12 42 41
15 12 42
18 27 23
19 17 33
20 13 13
21 57 58

DEMAND_SECTION
1 0
2 7
4 16
6 21
9 23
12 19
15 21
18 3
19 41
20 9
21 28

VEHICLE_TYPES
# id capacity fixed_cost var_cost
A 60  1000 1 
B 80  1500 1 
C 150 3000 1 
END_VEHICLE_TYPES

DEPOT_SECTION
1
-1
EOF
